; Options: -in -smt2
(set-option :produce-unsat-assumptions true)

(declare-fun start!2677 () Bool)

(assert start!2677)

(declare-fun b!14692 () Bool)

(declare-fun lt!7840 () (_ FloatingPoint 11 53))

(declare-datatypes ((array!1160 0))(
  ( (array!1161 (arr!511 (Array (_ BitVec 32) (_ FloatingPoint 11 53))) (size!511 (_ BitVec 32))) )
))
(declare-fun q!31 () array!1160)

(declare-datatypes ((Unit!1585 0))(
  ( (Unit!1586) )
))
(declare-datatypes ((array!1162 0))(
  ( (array!1163 (arr!512 (Array (_ BitVec 32) (_ BitVec 32))) (size!512 (_ BitVec 32))) )
))
(declare-datatypes ((tuple4!400 0))(
  ( (tuple4!401 (_1!394 Unit!1585) (_2!394 array!1162) (_3!331 (_ BitVec 32)) (_4!200 (_ FloatingPoint 11 53))) )
))
(declare-fun e!8347 () tuple4!400)

(declare-fun lt!7844 () array!1162)

(declare-fun jz!20 () (_ BitVec 32))

(declare-fun computeModuloWhile!0 ((_ BitVec 32) array!1160 array!1162 (_ BitVec 32) (_ FloatingPoint 11 53)) tuple4!400)

(assert (=> b!14692 (= e!8347 (computeModuloWhile!0 jz!20 q!31 lt!7844 jz!20 lt!7840))))

(declare-fun b!14693 () Bool)

(declare-fun res!11356 () Bool)

(declare-fun e!8344 () Bool)

(assert (=> b!14693 (=> res!11356 e!8344)))

(declare-datatypes ((tuple4!402 0))(
  ( (tuple4!403 (_1!395 Unit!1585) (_2!395 (_ BitVec 32)) (_3!332 array!1162) (_4!201 (_ BitVec 32))) )
))
(declare-fun lt!7842 () tuple4!402)

(declare-fun iqInv!0 (array!1162) Bool)

(assert (=> b!14693 (= res!11356 (not (iqInv!0 (_3!332 lt!7842))))))

(declare-fun b!14694 () Bool)

(declare-fun e!8346 () Bool)

(declare-fun e!8342 () Bool)

(assert (=> b!14694 (= e!8346 e!8342)))

(declare-fun res!11349 () Bool)

(assert (=> b!14694 (=> (not res!11349) (not e!8342))))

(declare-fun lt!7843 () (_ BitVec 32))

(assert (=> b!14694 (= res!11349 (bvslt lt!7843 (bvsub jz!20 #b00000000000000000000000000000001)))))

(declare-fun i!142 () (_ BitVec 32))

(assert (=> b!14694 (= lt!7843 (bvadd i!142 #b00000000000000000000000000000001))))

(declare-fun b!14695 () Bool)

(declare-fun res!11352 () Bool)

(declare-fun e!8348 () Bool)

(assert (=> b!14695 (=> (not res!11352) (not e!8348))))

(declare-fun qInv!0 (array!1160) Bool)

(assert (=> b!14695 (= res!11352 (qInv!0 q!31))))

(declare-fun b!14696 () Bool)

(declare-fun Unit!1587 () Unit!1585)

(assert (=> b!14696 (= e!8347 (tuple4!401 Unit!1587 lt!7844 jz!20 lt!7840))))

(declare-fun res!11355 () Bool)

(assert (=> start!2677 (=> (not res!11355) (not e!8348))))

(assert (=> start!2677 (= res!11355 (and (bvsle #b00000000000000000000000000000010 jz!20) (bvslt jz!20 #b00000000000000000000000000010011)))))

(assert (=> start!2677 e!8348))

(assert (=> start!2677 true))

(declare-fun array_inv!459 (array!1160) Bool)

(assert (=> start!2677 (array_inv!459 q!31)))

(declare-fun iq!76 () array!1162)

(declare-fun array_inv!460 (array!1162) Bool)

(assert (=> start!2677 (array_inv!460 iq!76)))

(declare-fun b!14697 () Bool)

(assert (=> b!14697 (= e!8342 e!8344)))

(declare-fun res!11348 () Bool)

(assert (=> b!14697 (=> res!11348 e!8344)))

(assert (=> b!14697 (= res!11348 (or (bvsgt #b00000000000000000000000000000000 (_2!395 lt!7842)) (bvsgt (_2!395 lt!7842) (bvsub jz!20 #b00000000000000000000000000000001))))))

(declare-fun lt!7839 () (_ BitVec 32))

(declare-fun carry!33 () (_ BitVec 32))

(declare-fun computeModuloWhile!3 ((_ BitVec 32) array!1160 (_ BitVec 32) array!1162 (_ BitVec 32)) tuple4!402)

(assert (=> b!14697 (= lt!7842 (computeModuloWhile!3 jz!20 q!31 lt!7843 (array!1163 (store (arr!512 iq!76) i!142 (ite (= carry!33 #b00000000000000000000000000000000) (ite (not (= lt!7839 #b00000000000000000000000000000000)) (bvsub #b00000001000000000000000000000000 lt!7839) #b00000000000000000000000000000000) (bvsub #b00000000111111111111111111111111 lt!7839))) (size!512 iq!76)) (ite (and (= carry!33 #b00000000000000000000000000000000) (not (= lt!7839 #b00000000000000000000000000000000))) #b00000000000000000000000000000001 carry!33)))))

(declare-fun b!14698 () Bool)

(declare-fun res!11353 () Bool)

(declare-fun e!8349 () Bool)

(assert (=> b!14698 (=> (not res!11353) (not e!8349))))

(assert (=> b!14698 (= res!11353 (iqInv!0 iq!76))))

(declare-fun b!14699 () Bool)

(assert (=> b!14699 (= e!8344 (or (bvslt (select (arr!512 (_3!332 lt!7842)) (bvsub jz!20 #b00000000000000000000000000000001)) #b00000000100000000000000000000000) (and (not (= (_4!201 lt!7842) #b00000000000000000000000000000000)) (not (= (_4!201 lt!7842) #b00000000000000000000000000000001)))))))

(declare-fun b!14700 () Bool)

(declare-fun res!11350 () Bool)

(assert (=> b!14700 (=> (not res!11350) (not e!8349))))

(assert (=> b!14700 (= res!11350 (and (bvsge (select (arr!512 iq!76) (bvsub jz!20 #b00000000000000000000000000000001)) #b00000000100000000000000000000000) (or (= carry!33 #b00000000000000000000000000000000) (= carry!33 #b00000000000000000000000000000001)) (bvslt i!142 (bvsub jz!20 #b00000000000000000000000000000001))))))

(declare-fun b!14701 () Bool)

(assert (=> b!14701 (= e!8348 e!8349)))

(declare-fun res!11351 () Bool)

(assert (=> b!14701 (=> (not res!11351) (not e!8349))))

(declare-fun lt!7845 () tuple4!400)

(declare-fun lt!7841 () (_ FloatingPoint 11 53))

(assert (=> b!14701 (= res!11351 (and (fp.leq (fp #b0 #b00000000000 #b0000000000000000000000000000000000000000000000000000) lt!7841) (fp.lt lt!7841 (fp #b0 #b10000000010 #b0000000000000000000000000000000000000000000000000000)) (bvsge (select (arr!512 (_2!394 lt!7845)) (bvsub jz!20 #b00000000000000000000000000000001)) #b00000000100000000000000000000000) (bvsle #b00000000000000000000000000000000 i!142) (bvsle i!142 (bvsub jz!20 #b00000000000000000000000000000001))))))

(assert (=> b!14701 (= lt!7841 (fp.sub roundNearestTiesToEven (_4!200 lt!7845) (fp.mul roundNearestTiesToEven (fp #b0 #b10000000010 #b0000000000000000000000000000000000000000000000000000) ((_ to_fp 11 53) roundNearestTiesToEven (ite (fp.isNaN (fp.mul roundNearestTiesToEven (_4!200 lt!7845) (fp #b0 #b01111111100 #b0000000000000000000000000000000000000000000000000000))) #b0000000000000000000000000000000000000000000000000000000000000000 (ite (fp.gt (fp.mul roundNearestTiesToEven (_4!200 lt!7845) (fp #b0 #b01111111100 #b0000000000000000000000000000000000000000000000000000)) ((_ to_fp 11 53) roundTowardZero #b0111111111111111111111111111111111111111111111111111111111111111)) #b0111111111111111111111111111111111111111111111111111111111111111 (ite (fp.lt (fp.mul roundNearestTiesToEven (_4!200 lt!7845) (fp #b0 #b01111111100 #b0000000000000000000000000000000000000000000000000000)) ((_ to_fp 11 53) roundTowardZero #b1000000000000000000000000000000000000000000000000000000000000000)) #b1000000000000000000000000000000000000000000000000000000000000000 ((_ fp.to_sbv 64) roundTowardZero (fp.mul roundNearestTiesToEven (_4!200 lt!7845) (fp #b0 #b01111111100 #b0000000000000000000000000000000000000000000000000000))))))))))))

(assert (=> b!14701 (= lt!7845 e!8347)))

(declare-fun c!1883 () Bool)

(assert (=> b!14701 (= c!1883 (bvsgt jz!20 #b00000000000000000000000000000000))))

(assert (=> b!14701 (= lt!7840 (select (arr!511 q!31) jz!20))))

(assert (=> b!14701 (= lt!7844 (array!1163 ((as const (Array (_ BitVec 32) (_ BitVec 32))) #b00000000000000000000000000000000) #b00000000000000000000000000010100))))

(declare-fun b!14702 () Bool)

(assert (=> b!14702 (= e!8349 e!8346)))

(declare-fun res!11354 () Bool)

(assert (=> b!14702 (=> (not res!11354) (not e!8346))))

(declare-fun QInt!0 ((_ BitVec 32)) Bool)

(assert (=> b!14702 (= res!11354 (QInt!0 lt!7839))))

(assert (=> b!14702 (= lt!7839 (select (arr!512 iq!76) i!142))))

(assert (= (and start!2677 res!11355) b!14695))

(assert (= (and b!14695 res!11352) b!14701))

(assert (= (and b!14701 c!1883) b!14692))

(assert (= (and b!14701 (not c!1883)) b!14696))

(assert (= (and b!14701 res!11351) b!14698))

(assert (= (and b!14698 res!11353) b!14700))

(assert (= (and b!14700 res!11350) b!14702))

(assert (= (and b!14702 res!11354) b!14694))

(assert (= (and b!14694 res!11349) b!14697))

(assert (= (and b!14697 (not res!11348)) b!14693))

(assert (= (and b!14693 (not res!11356)) b!14699))

(declare-fun m!22151 () Bool)

(assert (=> b!14701 m!22151))

(declare-fun m!22153 () Bool)

(assert (=> b!14701 m!22153))

(declare-fun m!22155 () Bool)

(assert (=> start!2677 m!22155))

(declare-fun m!22157 () Bool)

(assert (=> start!2677 m!22157))

(declare-fun m!22159 () Bool)

(assert (=> b!14695 m!22159))

(declare-fun m!22161 () Bool)

(assert (=> b!14700 m!22161))

(declare-fun m!22163 () Bool)

(assert (=> b!14692 m!22163))

(declare-fun m!22165 () Bool)

(assert (=> b!14699 m!22165))

(declare-fun m!22167 () Bool)

(assert (=> b!14698 m!22167))

(declare-fun m!22169 () Bool)

(assert (=> b!14697 m!22169))

(declare-fun m!22171 () Bool)

(assert (=> b!14697 m!22171))

(declare-fun m!22173 () Bool)

(assert (=> b!14693 m!22173))

(declare-fun m!22175 () Bool)

(assert (=> b!14702 m!22175))

(declare-fun m!22177 () Bool)

(assert (=> b!14702 m!22177))

(check-sat (not b!14697) (not b!14693) (not b!14698) (not b!14692) (not b!14702) (not b!14695) (not start!2677))
(check-sat)
(get-model)

(declare-fun d!5871 () Bool)

(assert (=> d!5871 (= (QInt!0 lt!7839) (and (bvsle #b00000000000000000000000000000000 lt!7839) (bvsle lt!7839 #b00000000111111111111111111111111)))))

(assert (=> b!14702 d!5871))

(declare-fun d!5873 () Bool)

(assert (=> d!5873 (= (array_inv!459 q!31) (bvsge (size!511 q!31) #b00000000000000000000000000000000))))

(assert (=> start!2677 d!5873))

(declare-fun d!5875 () Bool)

(assert (=> d!5875 (= (array_inv!460 iq!76) (bvsge (size!512 iq!76) #b00000000000000000000000000000000))))

(assert (=> start!2677 d!5875))

(declare-fun d!5877 () Bool)

(declare-fun res!11359 () Bool)

(declare-fun e!8352 () Bool)

(assert (=> d!5877 (=> (not res!11359) (not e!8352))))

(assert (=> d!5877 (= res!11359 (= (size!511 q!31) #b00000000000000000000000000010100))))

(assert (=> d!5877 (= (qInv!0 q!31) e!8352)))

(declare-fun b!14705 () Bool)

(declare-fun lambda!633 () Int)

(declare-fun all20!0 (array!1160 Int) Bool)

(assert (=> b!14705 (= e!8352 (all20!0 q!31 lambda!633))))

(assert (= (and d!5877 res!11359) b!14705))

(declare-fun m!22179 () Bool)

(assert (=> b!14705 m!22179))

(assert (=> b!14695 d!5877))

(declare-fun d!5879 () Bool)

(declare-fun res!11362 () Bool)

(declare-fun e!8355 () Bool)

(assert (=> d!5879 (=> (not res!11362) (not e!8355))))

(assert (=> d!5879 (= res!11362 (= (size!512 (_3!332 lt!7842)) #b00000000000000000000000000010100))))

(assert (=> d!5879 (= (iqInv!0 (_3!332 lt!7842)) e!8355)))

(declare-fun b!14708 () Bool)

(declare-fun lambda!636 () Int)

(declare-fun all20Int!0 (array!1162 Int) Bool)

(assert (=> b!14708 (= e!8355 (all20Int!0 (_3!332 lt!7842) lambda!636))))

(assert (= (and d!5879 res!11362) b!14708))

(declare-fun m!22181 () Bool)

(assert (=> b!14708 m!22181))

(assert (=> b!14693 d!5879))

(declare-fun bs!2647 () Bool)

(declare-fun b!14709 () Bool)

(assert (= bs!2647 (and b!14709 b!14708)))

(declare-fun lambda!637 () Int)

(assert (=> bs!2647 (= lambda!637 lambda!636)))

(declare-fun d!5881 () Bool)

(declare-fun res!11363 () Bool)

(declare-fun e!8356 () Bool)

(assert (=> d!5881 (=> (not res!11363) (not e!8356))))

(assert (=> d!5881 (= res!11363 (= (size!512 iq!76) #b00000000000000000000000000010100))))

(assert (=> d!5881 (= (iqInv!0 iq!76) e!8356)))

(assert (=> b!14709 (= e!8356 (all20Int!0 iq!76 lambda!637))))

(assert (= (and d!5881 res!11363) b!14709))

(declare-fun m!22183 () Bool)

(assert (=> b!14709 m!22183))

(assert (=> b!14698 d!5881))

(declare-fun b!14722 () Bool)

(declare-fun e!8364 () Bool)

(assert (=> b!14722 (= e!8364 (bvsgt jz!20 #b00000000000000000000000000000000))))

(declare-fun b!14723 () Bool)

(declare-fun res!11374 () Bool)

(assert (=> b!14723 (=> (not res!11374) (not e!8364))))

(assert (=> b!14723 (= res!11374 (iqInv!0 lt!7844))))

(declare-fun d!5883 () Bool)

(declare-fun e!8365 () Bool)

(assert (=> d!5883 e!8365))

(declare-fun res!11373 () Bool)

(assert (=> d!5883 (=> (not res!11373) (not e!8365))))

(declare-fun lt!7859 () tuple4!400)

(assert (=> d!5883 (= res!11373 (and true true (bvsle #b00000000000000000000000000000000 (_3!331 lt!7859)) (bvsle (_3!331 lt!7859) jz!20) (fp.leq (fp #b0 #b00000000000 #b0000000000000000000000000000000000000000000000000000) (_4!200 lt!7859)) (fp.leq (_4!200 lt!7859) (fp #b0 #b10000110001 #b0100000000000000000000010011111111111111111111111100))))))

(declare-fun e!8363 () tuple4!400)

(assert (=> d!5883 (= lt!7859 e!8363)))

(declare-fun c!1886 () Bool)

(declare-fun lt!7858 () (_ BitVec 32))

(assert (=> d!5883 (= c!1886 (bvsgt lt!7858 #b00000000000000000000000000000000))))

(assert (=> d!5883 (= lt!7858 (bvsub jz!20 #b00000000000000000000000000000001))))

(declare-fun lt!7860 () (_ FloatingPoint 11 53))

(declare-fun lt!7856 () (_ FloatingPoint 11 53))

(assert (=> d!5883 (= lt!7860 (fp.add roundNearestTiesToEven (select (arr!511 q!31) (bvsub jz!20 #b00000000000000000000000000000001)) lt!7856))))

(declare-fun lt!7857 () array!1162)

(assert (=> d!5883 (= lt!7857 (array!1163 (store (arr!512 lt!7844) (bvsub jz!20 jz!20) (ite (fp.isNaN (fp.sub roundNearestTiesToEven lt!7840 (fp.mul roundNearestTiesToEven (fp #b0 #b10000010111 #b0000000000000000000000000000000000000000000000000000) lt!7856))) #b00000000000000000000000000000000 (ite (fp.gt (fp.sub roundNearestTiesToEven lt!7840 (fp.mul roundNearestTiesToEven (fp #b0 #b10000010111 #b0000000000000000000000000000000000000000000000000000) lt!7856)) ((_ to_fp 11 53) roundTowardZero #b01111111111111111111111111111111)) #b01111111111111111111111111111111 (ite (fp.lt (fp.sub roundNearestTiesToEven lt!7840 (fp.mul roundNearestTiesToEven (fp #b0 #b10000010111 #b0000000000000000000000000000000000000000000000000000) lt!7856)) ((_ to_fp 11 53) roundTowardZero #b10000000000000000000000000000000)) #b10000000000000000000000000000000 ((_ fp.to_sbv 32) roundTowardZero (fp.sub roundNearestTiesToEven lt!7840 (fp.mul roundNearestTiesToEven (fp #b0 #b10000010111 #b0000000000000000000000000000000000000000000000000000) lt!7856))))))) (size!512 lt!7844)))))

(assert (=> d!5883 (= lt!7856 ((_ to_fp 11 53) roundNearestTiesToEven (ite (fp.isNaN (fp.mul roundNearestTiesToEven (fp #b0 #b01111100111 #b0000000000000000000000000000000000000000000000000000) lt!7840)) #b00000000000000000000000000000000 (ite (fp.gt (fp.mul roundNearestTiesToEven (fp #b0 #b01111100111 #b0000000000000000000000000000000000000000000000000000) lt!7840) ((_ to_fp 11 53) roundTowardZero #b01111111111111111111111111111111)) #b01111111111111111111111111111111 (ite (fp.lt (fp.mul roundNearestTiesToEven (fp #b0 #b01111100111 #b0000000000000000000000000000000000000000000000000000) lt!7840) ((_ to_fp 11 53) roundTowardZero #b10000000000000000000000000000000)) #b10000000000000000000000000000000 ((_ fp.to_sbv 32) roundTowardZero (fp.mul roundNearestTiesToEven (fp #b0 #b01111100111 #b0000000000000000000000000000000000000000000000000000) lt!7840)))))))))

(assert (=> d!5883 e!8364))

(declare-fun res!11372 () Bool)

(assert (=> d!5883 (=> (not res!11372) (not e!8364))))

(assert (=> d!5883 (= res!11372 (and (bvsle #b00000000000000000000000000000000 jz!20) (bvsle jz!20 jz!20) (fp.leq (fp #b0 #b00000000000 #b0000000000000000000000000000000000000000000000000000) lt!7840) (fp.leq lt!7840 (fp #b0 #b10000110001 #b0100000000000000000000010011111111111111111111111100))))))

(assert (=> d!5883 (= (computeModuloWhile!0 jz!20 q!31 lt!7844 jz!20 lt!7840) lt!7859)))

(declare-fun b!14724 () Bool)

(declare-fun res!11375 () Bool)

(assert (=> b!14724 (=> (not res!11375) (not e!8365))))

(assert (=> b!14724 (= res!11375 (iqInv!0 (_2!394 lt!7859)))))

(declare-fun b!14725 () Bool)

(assert (=> b!14725 (= e!8363 (computeModuloWhile!0 jz!20 q!31 lt!7857 lt!7858 lt!7860))))

(declare-fun b!14726 () Bool)

(assert (=> b!14726 (= e!8365 (bvsle (_3!331 lt!7859) #b00000000000000000000000000000000))))

(declare-fun b!14727 () Bool)

(declare-fun Unit!1588 () Unit!1585)

(assert (=> b!14727 (= e!8363 (tuple4!401 Unit!1588 lt!7857 lt!7858 lt!7860))))

(assert (= (and d!5883 res!11372) b!14723))

(assert (= (and b!14723 res!11374) b!14722))

(assert (= (and d!5883 c!1886) b!14725))

(assert (= (and d!5883 (not c!1886)) b!14727))

(assert (= (and d!5883 res!11373) b!14724))

(assert (= (and b!14724 res!11375) b!14726))

(declare-fun m!22185 () Bool)

(assert (=> b!14723 m!22185))

(declare-fun m!22187 () Bool)

(assert (=> d!5883 m!22187))

(declare-fun m!22189 () Bool)

(assert (=> d!5883 m!22189))

(declare-fun m!22191 () Bool)

(assert (=> b!14724 m!22191))

(declare-fun m!22193 () Bool)

(assert (=> b!14725 m!22193))

(assert (=> b!14692 d!5883))

(declare-fun lt!7879 () (_ BitVec 32))

(declare-fun b!14748 () Bool)

(declare-fun e!8377 () tuple4!402)

(declare-fun lt!7885 () array!1162)

(declare-fun lt!7887 () (_ BitVec 32))

(declare-fun Unit!1589 () Unit!1585)

(assert (=> b!14748 (= e!8377 (tuple4!403 Unit!1589 lt!7879 lt!7885 lt!7887))))

(declare-fun b!14750 () Bool)

(declare-fun res!11389 () Bool)

(declare-fun e!8374 () Bool)

(assert (=> b!14750 (=> (not res!11389) (not e!8374))))

(declare-fun lt!7880 () tuple4!402)

(declare-fun lt!7881 () (_ BitVec 32))

(assert (=> b!14750 (= res!11389 (bvsge (select (arr!512 (_3!332 lt!7880)) lt!7881) #b00000000100000000000000000000000))))

(assert (=> b!14750 (and (bvsge lt!7881 #b00000000000000000000000000000000) (bvslt lt!7881 (size!512 (_3!332 lt!7880))))))

(assert (=> b!14750 (= lt!7881 (bvsub jz!20 #b00000000000000000000000000000001))))

(assert (=> b!14750 (or (= (bvand jz!20 #b10000000000000000000000000000000) #b00000000000000000000000000000000) (= (bvand jz!20 #b10000000000000000000000000000000) (bvand (bvsub jz!20 #b00000000000000000000000000000001) #b10000000000000000000000000000000)))))

(declare-fun b!14751 () Bool)

(declare-fun res!11393 () Bool)

(assert (=> b!14751 (=> (not res!11393) (not e!8374))))

(assert (=> b!14751 (= res!11393 (or (= (_4!201 lt!7880) #b00000000000000000000000000000000) (= (_4!201 lt!7880) #b00000000000000000000000000000001)))))

(declare-fun b!14752 () Bool)

(declare-fun res!11388 () Bool)

(assert (=> b!14752 (=> (not res!11388) (not e!8374))))

(assert (=> b!14752 (= res!11388 (iqInv!0 (_3!332 lt!7880)))))

(declare-fun e!8375 () Bool)

(declare-fun b!14753 () Bool)

(assert (=> b!14753 (= e!8375 (and (bvsge (select (arr!512 (array!1163 (store (arr!512 iq!76) i!142 (ite (= carry!33 #b00000000000000000000000000000000) (ite (not (= lt!7839 #b00000000000000000000000000000000)) (bvsub #b00000001000000000000000000000000 lt!7839) #b00000000000000000000000000000000) (bvsub #b00000000111111111111111111111111 lt!7839))) (size!512 iq!76))) (bvsub jz!20 #b00000000000000000000000000000001)) #b00000000100000000000000000000000) (or (= (ite (and (= carry!33 #b00000000000000000000000000000000) (not (= lt!7839 #b00000000000000000000000000000000))) #b00000000000000000000000000000001 carry!33) #b00000000000000000000000000000000) (= (ite (and (= carry!33 #b00000000000000000000000000000000) (not (= lt!7839 #b00000000000000000000000000000000))) #b00000000000000000000000000000001 carry!33) #b00000000000000000000000000000001)) (bvslt lt!7843 (bvsub jz!20 #b00000000000000000000000000000001))))))

(declare-fun b!14754 () Bool)

(declare-fun res!11390 () Bool)

(assert (=> b!14754 (=> (not res!11390) (not e!8375))))

(assert (=> b!14754 (= res!11390 (iqInv!0 (array!1163 (store (arr!512 iq!76) i!142 (ite (= carry!33 #b00000000000000000000000000000000) (ite (not (= lt!7839 #b00000000000000000000000000000000)) (bvsub #b00000001000000000000000000000000 lt!7839) #b00000000000000000000000000000000) (bvsub #b00000000111111111111111111111111 lt!7839))) (size!512 iq!76))))))

(declare-fun lt!7882 () (_ FloatingPoint 11 53))

(declare-fun e!8376 () tuple4!400)

(declare-fun lt!7884 () array!1162)

(declare-fun b!14755 () Bool)

(assert (=> b!14755 (= e!8376 (computeModuloWhile!0 jz!20 q!31 lt!7884 jz!20 lt!7882))))

(declare-fun d!5885 () Bool)

(assert (=> d!5885 e!8374))

(declare-fun res!11391 () Bool)

(assert (=> d!5885 (=> (not res!11391) (not e!8374))))

(assert (=> d!5885 (= res!11391 (and (or (bvsgt #b00000000000000000000000000000000 (_2!395 lt!7880)) (= (bvand jz!20 #b10000000000000000000000000000000) #b00000000000000000000000000000000) (= (bvand jz!20 #b10000000000000000000000000000000) (bvand (bvsub jz!20 #b00000000000000000000000000000001) #b10000000000000000000000000000000))) (bvsle #b00000000000000000000000000000000 (_2!395 lt!7880)) (bvsle (_2!395 lt!7880) (bvsub jz!20 #b00000000000000000000000000000001))))))

(assert (=> d!5885 (= lt!7880 e!8377)))

(declare-fun c!1892 () Bool)

(assert (=> d!5885 (= c!1892 (bvslt lt!7879 (bvsub jz!20 #b00000000000000000000000000000001)))))

(assert (=> d!5885 (= lt!7879 (bvadd lt!7843 #b00000000000000000000000000000001))))

(declare-fun lt!7883 () (_ BitVec 32))

(assert (=> d!5885 (= lt!7887 (ite (and (= (ite (and (= carry!33 #b00000000000000000000000000000000) (not (= lt!7839 #b00000000000000000000000000000000))) #b00000000000000000000000000000001 carry!33) #b00000000000000000000000000000000) (not (= lt!7883 #b00000000000000000000000000000000))) #b00000000000000000000000000000001 (ite (and (= carry!33 #b00000000000000000000000000000000) (not (= lt!7839 #b00000000000000000000000000000000))) #b00000000000000000000000000000001 carry!33)))))

(assert (=> d!5885 (= lt!7885 (array!1163 (store (arr!512 (array!1163 (store (arr!512 iq!76) i!142 (ite (= carry!33 #b00000000000000000000000000000000) (ite (not (= lt!7839 #b00000000000000000000000000000000)) (bvsub #b00000001000000000000000000000000 lt!7839) #b00000000000000000000000000000000) (bvsub #b00000000111111111111111111111111 lt!7839))) (size!512 iq!76))) lt!7843 (ite (= (ite (and (= carry!33 #b00000000000000000000000000000000) (not (= lt!7839 #b00000000000000000000000000000000))) #b00000000000000000000000000000001 carry!33) #b00000000000000000000000000000000) (ite (not (= lt!7883 #b00000000000000000000000000000000)) (bvsub #b00000001000000000000000000000000 lt!7883) #b00000000000000000000000000000000) (bvsub #b00000000111111111111111111111111 lt!7883))) (size!512 (array!1163 (store (arr!512 iq!76) i!142 (ite (= carry!33 #b00000000000000000000000000000000) (ite (not (= lt!7839 #b00000000000000000000000000000000)) (bvsub #b00000001000000000000000000000000 lt!7839) #b00000000000000000000000000000000) (bvsub #b00000000111111111111111111111111 lt!7839))) (size!512 iq!76)))))))

(assert (=> d!5885 (= lt!7883 (select (arr!512 (array!1163 (store (arr!512 iq!76) i!142 (ite (= carry!33 #b00000000000000000000000000000000) (ite (not (= lt!7839 #b00000000000000000000000000000000)) (bvsub #b00000001000000000000000000000000 lt!7839) #b00000000000000000000000000000000) (bvsub #b00000000111111111111111111111111 lt!7839))) (size!512 iq!76))) lt!7843))))

(assert (=> d!5885 e!8375))

(declare-fun res!11392 () Bool)

(assert (=> d!5885 (=> (not res!11392) (not e!8375))))

(assert (=> d!5885 (= res!11392 (and (bvsle #b00000000000000000000000000000000 lt!7843) (bvsle lt!7843 (bvsub jz!20 #b00000000000000000000000000000001))))))

(declare-fun lt!7886 () tuple4!400)

(assert (=> d!5885 (= lt!7886 e!8376)))

(declare-fun c!1891 () Bool)

(assert (=> d!5885 (= c!1891 (bvsgt jz!20 #b00000000000000000000000000000000))))

(assert (=> d!5885 (= lt!7882 (select (arr!511 q!31) jz!20))))

(assert (=> d!5885 (= lt!7884 (array!1163 ((as const (Array (_ BitVec 32) (_ BitVec 32))) #b00000000000000000000000000000000) #b00000000000000000000000000010100))))

(assert (=> d!5885 (= (computeModuloWhile!3 jz!20 q!31 lt!7843 (array!1163 (store (arr!512 iq!76) i!142 (ite (= carry!33 #b00000000000000000000000000000000) (ite (not (= lt!7839 #b00000000000000000000000000000000)) (bvsub #b00000001000000000000000000000000 lt!7839) #b00000000000000000000000000000000) (bvsub #b00000000111111111111111111111111 lt!7839))) (size!512 iq!76)) (ite (and (= carry!33 #b00000000000000000000000000000000) (not (= lt!7839 #b00000000000000000000000000000000))) #b00000000000000000000000000000001 carry!33)) lt!7880)))

(declare-fun b!14749 () Bool)

(assert (=> b!14749 (= e!8377 (computeModuloWhile!3 jz!20 q!31 lt!7879 lt!7885 lt!7887))))

(declare-fun b!14756 () Bool)

(declare-fun Unit!1590 () Unit!1585)

(assert (=> b!14756 (= e!8376 (tuple4!401 Unit!1590 lt!7884 jz!20 lt!7882))))

(declare-fun b!14757 () Bool)

(assert (=> b!14757 (= e!8374 (bvsge (_2!395 lt!7880) (bvsub jz!20 #b00000000000000000000000000000001)))))

(assert (=> b!14757 (or (= (bvand jz!20 #b10000000000000000000000000000000) #b00000000000000000000000000000000) (= (bvand jz!20 #b10000000000000000000000000000000) (bvand (bvsub jz!20 #b00000000000000000000000000000001) #b10000000000000000000000000000000)))))

(assert (= (and d!5885 c!1891) b!14755))

(assert (= (and d!5885 (not c!1891)) b!14756))

(assert (= (and d!5885 res!11392) b!14754))

(assert (= (and b!14754 res!11390) b!14753))

(assert (= (and d!5885 c!1892) b!14749))

(assert (= (and d!5885 (not c!1892)) b!14748))

(assert (= (and d!5885 res!11391) b!14752))

(assert (= (and b!14752 res!11388) b!14750))

(assert (= (and b!14750 res!11389) b!14751))

(assert (= (and b!14751 res!11393) b!14757))

(declare-fun m!22195 () Bool)

(assert (=> b!14753 m!22195))

(declare-fun m!22197 () Bool)

(assert (=> d!5885 m!22197))

(declare-fun m!22199 () Bool)

(assert (=> d!5885 m!22199))

(assert (=> d!5885 m!22153))

(declare-fun m!22201 () Bool)

(assert (=> b!14754 m!22201))

(declare-fun m!22203 () Bool)

(assert (=> b!14749 m!22203))

(declare-fun m!22205 () Bool)

(assert (=> b!14755 m!22205))

(declare-fun m!22207 () Bool)

(assert (=> b!14752 m!22207))

(declare-fun m!22209 () Bool)

(assert (=> b!14750 m!22209))

(assert (=> b!14697 d!5885))

(check-sat (not b!14708) (not b!14755) (not b!14725) (not b!14705) (not b!14754) (not b!14724) (not b!14709) (not b!14723) (not b!14749) (not b!14752))
(check-sat)
